
Gurobi 8.1.0 (win64, Python) logging started 05/05/19 14:45:16

Academic license - for non-commercial use only
Read LP format model from file C:\Users\STEPHA~1\AppData\Local\Temp\tmpbtxeb6j_.pyomo.lp
Reading time = 0.00 seconds
x6: 1 rows, 6 columns, 1 nonzeros
Optimize a model with 1 rows, 6 columns and 1 nonzeros
Model has 5 quadratic objective terms
Model has 1 quadratic constraint
Coefficient statistics:
  Matrix range     [1e+00, 1e+00]
  QMatrix range    [5e-01, 5e+00]
  QLMatrix range   [2e+00, 1e+01]
  Objective range  [0e+00, 0e+00]
  QObjective range [2e+00, 2e+00]
  Bounds range     [0e+00, 0e+00]
  RHS range        [1e+00, 1e+00]
  QRHS range       [5e+00, 5e+00]
Presolve removed 1 rows and 1 columns

Gurobi 8.1.0 (win64, Python) logging started 05/07/19 01:43:58

Academic license - for non-commercial use only
Read LP format model from file C:\Users\STEPHA~1\AppData\Local\Temp\tmpl2dkin3k.pyomo.lp
Reading time = 0.00 seconds
x6: 1 rows, 6 columns, 1 nonzeros
Optimize a model with 1 rows, 6 columns and 1 nonzeros
Model has 5 quadratic objective terms
Model has 1 quadratic constraint
Coefficient statistics:
  Matrix range     [1e+00, 1e+00]
  QMatrix range    [5e-01, 5e+00]
  QLMatrix range   [2e+00, 1e+01]
  Objective range  [0e+00, 0e+00]
  QObjective range [2e+00, 2e+00]
  Bounds range     [0e+00, 0e+00]
  RHS range        [1e+00, 1e+00]
  QRHS range       [5e+00, 5e+00]
Presolve removed 1 rows and 1 columns

Gurobi 8.1.0 (win64, Python) logging started 05/07/19 01:49:06

Academic license - for non-commercial use only
Read LP format model from file C:\Users\STEPHA~1\AppData\Local\Temp\tmpiqvaqso_.pyomo.lp
Reading time = 0.00 seconds
x6: 1 rows, 6 columns, 1 nonzeros
Optimize a model with 1 rows, 6 columns and 1 nonzeros
Model has 5 quadratic objective terms
Model has 1 quadratic constraint
Coefficient statistics:
  Matrix range     [1e+00, 1e+00]
  QMatrix range    [5e-01, 5e+00]
  QLMatrix range   [2e+00, 1e+01]
  Objective range  [0e+00, 0e+00]
  QObjective range [2e+00, 2e+00]
  Bounds range     [0e+00, 0e+00]
  RHS range        [1e+00, 1e+00]
  QRHS range       [1e+01, 1e+01]
Presolve removed 1 rows and 1 columns

Gurobi 8.1.0 (win64, Python) logging started 05/07/19 01:51:16

Academic license - for non-commercial use only
Read LP format model from file C:\Users\STEPHA~1\AppData\Local\Temp\tmp4dzuk52k.pyomo.lp
Reading time = 0.00 seconds
x6: 1 rows, 6 columns, 1 nonzeros
Optimize a model with 1 rows, 6 columns and 1 nonzeros
Model has 5 quadratic objective terms
Model has 1 quadratic constraint
Coefficient statistics:
  Matrix range     [1e+00, 1e+00]
  QMatrix range    [5e-01, 5e+00]
  QLMatrix range   [2e+00, 1e+01]
  Objective range  [0e+00, 0e+00]
  QObjective range [2e+00, 2e+00]
  Bounds range     [0e+00, 0e+00]
  RHS range        [1e+00, 1e+00]
  QRHS range       [3e-01, 3e-01]
Presolve removed 1 rows and 1 columns

Gurobi 8.1.0 (win64, Python) logging started 05/07/19 01:51:55

Academic license - for non-commercial use only
Read LP format model from file C:\Users\STEPHA~1\AppData\Local\Temp\tmpeiv3k0zn.pyomo.lp
Reading time = 0.00 seconds
x6: 1 rows, 6 columns, 1 nonzeros
Optimize a model with 1 rows, 6 columns and 1 nonzeros
Model has 5 quadratic objective terms
Model has 1 quadratic constraint
Coefficient statistics:
  Matrix range     [1e+00, 1e+00]
  QMatrix range    [5e-01, 5e+00]
  QLMatrix range   [2e+00, 1e+01]
  Objective range  [0e+00, 0e+00]
  QObjective range [2e+00, 2e+00]
  Bounds range     [0e+00, 0e+00]
  RHS range        [1e+00, 1e+00]
  QRHS range       [1e+01, 1e+01]
Presolve removed 1 rows and 1 columns

Gurobi 8.1.0 (win64, Python) logging started 05/07/19 01:52:54

Academic license - for non-commercial use only
Read LP format model from file C:\Users\STEPHA~1\AppData\Local\Temp\tmpwirpk7tm.pyomo.lp
Reading time = 0.00 seconds
x6: 1 rows, 6 columns, 1 nonzeros
Optimize a model with 1 rows, 6 columns and 1 nonzeros
Model has 5 quadratic objective terms
Model has 1 quadratic constraint
Coefficient statistics:
  Matrix range     [1e+00, 1e+00]
  QMatrix range    [5e-01, 5e+00]
  QLMatrix range   [2e+00, 1e+01]
  Objective range  [0e+00, 0e+00]
  QObjective range [2e+00, 2e+00]
  Bounds range     [0e+00, 0e+00]
  RHS range        [1e+00, 1e+00]
  QRHS range       [1e+01, 1e+01]
Presolve removed 1 rows and 1 columns
